c turning on binary mode checking
c parsing input formula with 259840 variables and 1039934 clauses
c finished parsing, read 3259813 bytes from proof file
c detected empty clause; start verification via backward checking
c 10436 of 1039934 clauses in core                            
c 3268 of 128403 lemmas in core using 108604 resolution steps
c 0 RAT lemmas in core; 697 redundant literals in core lemmas
s VERIFIED
c verification time: 1.659 seconds
